row=7;
column=7;
left=[0, 7, 0, 0, 16, 20, 0];
right=[15, 0, 0, 13, 13, 11, 7];
top=[12, 0, 0, 16, 16, 13, 0];
bottom=[20, 13, 22, 0, 12, 10, 7];
Board=[|0,0,7,0,0,6,0|7,3,2,1,6,0,0|0,0,0,0,0,2,0|3,0,0,0,2,0,0|0,2,0,0,0,7,0|0,0,0,6,7,1,4|0,0,4,2,0,0,0|]